p cnf 210 320
1 32 34 51 52 0
1 32 34 51 -52 0
1 32 34 -51 52 0
1 32 34 -51 -52 0
4 5 32 53 54 0
4 5 32 53 -54 0
4 5 32 -53 54 0
4 5 32 -53 -54 0
-4 5 -34 55 56 0
-4 5 -34 55 -56 0
-4 5 -34 -55 56 0
-4 5 -34 -55 -56 0
-5 32 -34 57 58 0
-5 32 -34 57 -58 0
-5 32 -34 -57 58 0
-5 32 -34 -57 -58 0
29 -32 43 59 60 0
29 -32 43 59 -60 0
29 -32 43 -59 60 0
29 -32 43 -59 -60 0
29 36 -43 61 62 0
29 36 -43 61 -62 0
29 36 -43 -61 62 0
29 36 -43 -61 -62 0
29 -32 -36 63 64 0
29 -32 -36 63 -64 0
29 -32 -36 -63 64 0
29 -32 -36 -63 -64 0
1 3 -29 65 66 0
1 3 -29 65 -66 0
1 3 -29 -65 66 0
1 3 -29 -65 -66 0
-3 -29 -32 67 68 0
-3 -29 -32 67 -68 0
-3 -29 -32 -67 68 0
-3 -29 -32 -67 -68 0
-1 24 39 69 70 0
-1 24 39 69 -70 0
-1 24 39 -69 70 0
-1 24 39 -69 -70 0
-1 24 -39 71 72 0
-1 24 -39 71 -72 0
-1 24 -39 -71 72 0
-1 24 -39 -71 -72 0
7 18 -24 73 74 0
7 18 -24 73 -74 0
7 18 -24 -73 74 0
7 18 -24 -73 -74 0
-7 18 28 75 76 0
-7 18 28 75 -76 0
-7 18 28 -75 76 0
-7 18 28 -75 -76 0
-7 -21 28 77 78 0
-7 -21 28 77 -78 0
-7 -21 28 -77 78 0
-7 -21 28 -77 -78 0
-7 17 -28 79 80 0
-7 17 -28 79 -80 0
-7 17 -28 -79 80 0
-7 17 -28 -79 -80 0
18 -24 -28 81 82 0
18 -24 -28 81 -82 0
18 -24 -28 -81 82 0
18 -24 -28 -81 -82 0
2 17 40 83 84 0
2 17 40 83 -84 0
2 17 40 -83 84 0
2 17 40 -83 -84 0
-17 -18 40 85 86 0
-17 -18 40 85 -86 0
-17 -18 40 -85 86 0
-17 -18 40 -85 -86 0
2 39 -40 87 88 0
2 39 -40 87 -88 0
2 39 -40 -87 88 0
2 39 -40 -87 -88 0
2 -39 -40 89 90 0
2 -39 -40 89 -90 0
2 -39 -40 -89 90 0
2 -39 -40 -89 -90 0
-2 -18 35 91 92 0
-2 -18 35 91 -92 0
-2 -18 35 -91 92 0
-2 -18 35 -91 -92 0
-2 -18 -35 93 94 0
-2 -18 -35 93 -94 0
-2 -18 -35 -93 94 0
-2 -18 -35 -93 -94 0
9 -32 41 95 96 0
9 -32 41 95 -96 0
9 -32 41 -95 96 0
9 -32 41 -95 -96 0
-9 41 45 97 98 0
-9 41 45 97 -98 0
-9 41 45 -97 98 0
-9 41 45 -97 -98 0
-1 -9 -45 99 100 0
-1 -9 -45 99 -100 0
-1 -9 -45 -99 100 0
-1 -9 -45 -99 -100 0
-5 27 43 101 102 0
-5 27 43 101 -102 0
-5 27 43 -101 102 0
-5 27 43 -101 -102 0
14 16 26 103 104 0
14 16 26 103 -104 0
14 16 26 -103 104 0
14 16 26 -103 -104 0
14 -16 49 105 106 0
14 -16 49 105 -106 0
14 -16 49 -105 106 0
14 -16 49 -105 -106 0
12 -14 26 107 108 0
12 -14 26 107 -108 0
12 -14 26 -107 108 0
12 -14 26 -107 -108 0
-12 26 35 109 110 0
-12 26 35 109 -110 0
-12 26 35 -109 110 0
-12 26 35 -109 -110 0
26 30 -35 111 112 0
26 30 -35 111 -112 0
26 30 -35 -111 112 0
26 30 -35 -111 -112 0
-26 30 49 113 114 0
-26 30 49 113 -114 0
-26 30 49 -113 114 0
-26 30 49 -113 -114 0
9 13 25 115 116 0
9 13 25 115 -116 0
9 13 25 -115 116 0
9 13 25 -115 -116 0
5 -17 25 117 118 0
5 -17 25 117 -118 0
5 -17 25 -117 118 0
5 -17 25 -117 -118 0
15 30 47 119 120 0
15 30 47 119 -120 0
15 30 47 -119 120 0
15 30 47 -119 -120 0
-20 27 -49 121 122 0
-20 27 -49 121 -122 0
-20 27 -49 -121 122 0
-20 27 -49 -121 -122 0
13 -20 -27 123 124 0
13 -20 -27 123 -124 0
13 -20 -27 -123 124 0
13 -20 -27 -123 -124 0
-13 -30 -49 125 126 0
-13 -30 -49 125 -126 0
-13 -30 -49 -125 126 0
-13 -30 -49 -125 -126 0
3 8 37 127 128 0
3 8 37 127 -128 0
3 8 37 -127 128 0
3 8 37 -127 -128 0
8 23 -43 129 130 0
8 23 -43 129 -130 0
8 23 -43 -129 130 0
8 23 -43 -129 -130 0
10 19 22 131 132 0
10 19 22 131 -132 0
10 19 22 -131 132 0
10 19 22 -131 -132 0
10 -19 22 133 134 0
10 -19 22 133 -134 0
10 -19 22 -133 134 0
10 -19 22 -133 -134 0
-10 -19 36 135 136 0
-10 -19 36 135 -136 0
-10 -19 36 -135 136 0
-10 -19 36 -135 -136 0
4 21 38 137 138 0
4 21 38 137 -138 0
4 21 38 -137 138 0
4 21 38 -137 -138 0
-4 38 46 139 140 0
-4 38 46 139 -140 0
-4 38 46 -139 140 0
-4 38 46 -139 -140 0
21 -38 -47 141 142 0
21 -38 -47 141 -142 0
21 -38 -47 -141 142 0
21 -38 -47 -141 -142 0
-21 45 46 143 144 0
-21 45 46 143 -144 0
-21 45 46 -143 144 0
-21 45 46 -143 -144 0
-14 -33 -38 145 146 0
-14 -33 -38 145 -146 0
-14 -33 -38 -145 146 0
-14 -33 -38 -145 -146 0
-10 11 -26 147 148 0
-10 11 -26 147 -148 0
-10 11 -26 -147 148 0
-10 11 -26 -147 -148 0
-14 16 -50 149 150 0
-14 16 -50 149 -150 0
-14 16 -50 -149 150 0
-14 16 -50 -149 -150 0
-14 -16 -23 151 152 0
-14 -16 -23 151 -152 0
-14 -16 -23 -151 152 0
-14 -16 -23 -151 -152 0
-2 -23 -50 153 154 0
-2 -23 -50 153 -154 0
-2 -23 -50 -153 154 0
-2 -23 -50 -153 -154 0
12 -47 50 155 156 0
12 -47 50 155 -156 0
12 -47 50 -155 156 0
12 -47 50 -155 -156 0
7 10 48 157 158 0
7 10 48 157 -158 0
7 10 48 -157 158 0
7 10 48 -157 -158 0
-6 -13 -41 159 160 0
-6 -13 -41 159 -160 0
-6 -13 -41 -159 160 0
-6 -13 -41 -159 -160 0
11 -41 -48 161 162 0
11 -41 -48 161 -162 0
11 -41 -48 -161 162 0
11 -41 -48 -161 -162 0
23 -41 -48 163 164 0
23 -41 -48 163 -164 0
23 -41 -48 -163 164 0
23 -41 -48 -163 -164 0
-15 42 48 165 166 0
-15 42 48 165 -166 0
-15 42 48 -165 166 0
-15 42 48 -165 -166 0
-15 -21 -42 167 168 0
-15 -21 -42 167 -168 0
-15 -21 -42 -167 168 0
-15 -21 -42 -167 -168 0
11 34 44 169 170 0
11 34 44 169 -170 0
11 34 44 -169 170 0
11 34 44 -169 -170 0
-27 -34 -46 171 172 0
-27 -34 -46 171 -172 0
-27 -34 -46 -171 172 0
-27 -34 -46 -171 -172 0
19 28 50 173 174 0
19 28 50 173 -174 0
19 28 50 -173 174 0
19 28 50 -173 -174 0
-3 6 -35 175 176 0
-3 6 -35 175 -176 0
-3 6 -35 -175 176 0
-3 6 -35 -175 -176 0
-22 -40 -44 177 178 0
-22 -40 -44 177 -178 0
-22 -40 -44 -177 178 0
-22 -40 -44 -177 -178 0
-25 -37 -42 179 180 0
-25 -37 -42 179 -180 0
-25 -37 -42 -179 180 0
-25 -37 -42 -179 -180 0
-26 -30 -37 181 182 0
-26 -30 -37 181 -182 0
-26 -30 -37 -181 182 0
-26 -30 -37 -181 -182 0
6 -31 42 183 184 0
6 -31 42 183 -184 0
6 -31 42 -183 184 0
6 -31 42 -183 -184 0
6 -31 -33 185 186 0
6 -31 -33 185 -186 0
6 -31 -33 -185 186 0
6 -31 -33 -185 -186 0
-44 -45 47 187 188 0
-44 -45 47 187 -188 0
-44 -45 47 -187 188 0
-44 -45 47 -187 -188 0
4 20 47 189 190 0
4 20 47 189 -190 0
4 20 47 -189 190 0
4 20 47 -189 -190 0
-6 44 -46 191 192 0
-6 44 -46 191 -192 0
-6 44 -46 -191 192 0
-6 44 -46 -191 -192 0
-11 12 20 193 194 0
-11 12 20 193 -194 0
-11 12 20 -193 194 0
-11 12 20 -193 -194 0
-8 10 28 195 196 0
-8 10 28 195 -196 0
-8 10 28 -195 196 0
-8 10 28 -195 -196 0
-22 31 -36 197 198 0
-22 31 -36 197 -198 0
-22 31 -36 -197 198 0
-22 31 -36 -197 -198 0
7 -25 37 199 200 0
7 -25 37 199 -200 0
7 -25 37 -199 200 0
7 -25 37 -199 -200 0
-11 31 47 201 202 0
-11 31 47 201 -202 0
-11 31 47 -201 202 0
-11 31 47 -201 -202 0
-4 10 -12 203 204 0
-4 10 -12 203 -204 0
-4 10 -12 -203 204 0
-4 10 -12 -203 -204 0
-30 -31 44 205 206 0
-30 -31 44 205 -206 0
-30 -31 44 -205 206 0
-30 -31 44 -205 -206 0
7 15 33 207 208 0
7 15 33 207 -208 0
7 15 33 -207 208 0
7 15 33 -207 -208 0
-8 -11 33 209 210 0
-8 -11 33 209 -210 0
-8 -11 33 -209 210 0
-8 -11 33 -209 -210 0
